c WARNING: for repeatability, setting FPU to use double precision
d VARIABLES            140866       
d CONSTRAINTS          591764       
c ============================[ Problem Statistics ]=============================
c |                                                                             |
c |  Number of variables:        140866                                         |
c |  Number of clauses:          591764                                         |
c |  Parse time:                   0.09 s                                       |
c |                                                                             |
c ============================[ Search Statistics ]==============================
c | Conflicts |          ORIGINAL         |          LEARNT          | Progress |
c |           |    Vars  Clauses Literals |    Limit  Clauses Lit/Cl |          |
c ===============================================================================
c |       100 |  110692   513542  1249299 |   188298      100     42 | 21.420 % |
c |       250 |  110692   513542  1249299 |   207128      250     40 | 21.420 % |
c |       475 |  110692   513542  1249299 |   227841      475     89 | 21.420 % |
c |       812 |  110692   513542  1249299 |   250625      812     98 | 21.420 % |
c |      1318 |  110692   513542  1249299 |   275688     1318    165 | 21.420 % |
c |      2077 |  110692   513542  1249299 |   303256     2077    152 | 21.420 % |
c |      3216 |  110692   513542  1249299 |   333582     3216    176 | 21.420 % |
c |      4924 |  110692   513542  1249299 |   366940     4924    165 | 21.420 % |
c |      7486 |  110684   513502  1249203 |   403635     7485    186 | 21.426 % |
c |     11330 |  110684   513502  1249203 |   443998    11329    191 | 21.426 % |
c ===============================================================================
c restarts              : 62
c conflicts             : 15763          (2034 /sec)
c decisions             : 81984          (0.00 % random) (10581 /sec)
c propagations          : 42611621       (5499349 /sec)
c conflict literals     : 3281488        (7.98 % deleted)
d RESTARTS             62
d FAILURES             15763        
d NODES                81984        
d BACKTRACKS           81984        
d PROPAGATIONS         42611621     
d NOGOODSIZE           208.18 
d MEMORY               69.00 
d TIME                 7.74848 

s SATISFIABLE
